/* Objective function */
max: 420 L1 + 360 M1 + 300 S1 + 420 L2 + 360 M2 + 300 S2 + 420 L3 + 360 M3 + 300 S3;


/* Capacity Constraints */

L1 + M1 + S1 <= 750;
L2 + M2 + S2 <= 900;  
L3 + M3 + S3 <= 450;

/* Sq. Footage Constraints */

20 L1 + 15 M1 + 12 S1 <= 13000;
20 L2 + 15 M2 + 12 S2 <= 12000;
20 L3 + 15 M3 + 12 S3 <= 5000;

/* Sales Constraints */

L1 + L2 + L3 <= 900;
M1 + M2 + M3 <= 1200;
S1 + S2 + S3 <= 750;


/* same percentage of capacity Constraints */

900 L1 + 900 M1 + 900 S1 - 750 L2 - 750 M2 - 750 S2 = 0;
450 L1 + 450 M1 + 450 S1 - 750 L3 - 750 M3 - 750 S3 = 0;

/* L1,L2,L3,M1,M2,M3,S1,S2,S3 are >= 0  */